[[50, 44, 3, 24, 49, 16, 33, 63, 23, 56, 43, 41, 42, 64, 22, 62, 73, 2, 74, 28, 61, 21, 47, 69, 36, 71, 60, 70, 20, 37, 5, 15, 57, 13, 27, 45, 29], [48, 30, 68, 6, 75, 76, 4, 67, 34, 52, 46, 8, 7, 35, 54, 19, 53, 14, 59, 11, 66, 65, 38, 10, 31, 58, 72, 39, 12, 26, 17, 51, 40, 32, 9, 25, 55, 18]]